% File represents an instance of a Composite Structure problem to be solved by a CP framework
% Created on 2025-03-26 10:41:47.710
T = 50;
n = 36;
m = 60;
edges = [(1, 2),
(8, 7),
(14, 13),
(20, 19),
(25, 26),
(32, 31),
(2, 3),
(8, 9),
(14, 15),
(20, 21),
(26, 27),
(32, 33),
(4, 3),
(10, 9),
(16, 15),
(22, 21),
(28, 27),
(34, 33),
(5, 4),
(10, 11),
(16, 17),
(23, 22),
(29, 28),
(34, 35),
(5, 6),
(11, 12),
(17, 18),
(23, 24),
(29, 30),
(35, 36),
(1, 7),
(7, 13),
(13, 19),
(25, 19),
(25, 31),
(8, 2),
(8, 14),
(14, 20),
(20, 26),
(32, 26),
(9, 3),
(9, 15),
(15, 21),
(21, 27),
(33, 27),
(10, 4),
(10, 16),
(16, 22),
(22, 28),
(34, 28),
(5, 11),
(11, 17),
(23, 17),
(23, 29),
(35, 29),
(6, 12),
(12, 18),
(24, 18),
(24, 30),
(30, 36)];
counts = [|4, 20, 4, 22,
|4, 16, 4, 20,
|4, 14, 4, 18,
|4, 16, 4, 18,
|4, 18, 4, 22,
|4, 16, 4, 18,
|4, 18, 4, 18,
|4, 18, 4, 20,
|4, 14, 4, 20,
|4, 18, 4, 22,
|4, 18, 4, 16,
|4, 16, 4, 12,
|4, 16, 4, 16,
|4, 18, 4, 16,
|4, 12, 4, 16,
|4, 14, 4, 20,
|4, 14, 4, 14,
|4, 12, 4, 10,
|4, 16, 4, 12,
|4, 18, 4, 12,
|4, 12, 4, 12,
|4, 14, 4, 14,
|4, 14, 4, 16,
|4, 14, 4, 12,
|4, 18, 4, 14,
|4, 14, 4, 12,
|4, 10, 4, 10,
|4, 10, 4, 12,
|4, 10, 4, 14,
|4, 10, 4, 12,
|4, 12, 4, 14,
|4, 14, 4, 16,
|4, 10, 4, 14,
|4, 12, 4, 16,
|4, 10, 4, 16,
|4, 8, 4, 12|];
